p cnf 333 966
c inputs: 1 2 3 4 5 6 7 8 9 10 11
c variables for gates: 12 ... 322
c outputs: 323 324 325 326 327 328 329 330 331 332 333
c random input: -1 -2 3 -4 -5 -6 7 8 9 -10 -11
12 -1 -7 0
-12 1 0
-12 7 0
13 -2 -6 0
-13 2 0
-13 6 0
14 -12 13 0
-14 12 0
-14 -13 0
15 -13 12 0
-15 13 0
-15 -12 0
16 14 15 0
-16 -14 0
-16 -15 0
17 -1 -7 0
-17 1 0
-17 7 0
18 -2 -6 0
-18 2 0
-18 6 0
19 -18 -17 0
-19 18 0
-19 17 0
20 -1 -8 0
-20 1 0
-20 8 0
21 -2 -7 0
-21 2 0
-21 7 0
22 -21 -20 0
-22 21 0
-22 20 0
23 -1 -8 0
-23 1 0
-23 8 0
24 -23 -19 0
-24 23 0
-24 19 0
25 -2 -7 0
-25 2 0
-25 7 0
26 -25 -19 0
-26 25 0
-26 19 0
27 24 26 0
-27 -24 0
-27 -26 0
28 22 -27 0
-28 -22 0
-28 27 0
29 -1 -8 0
-29 1 0
-29 8 0
30 -2 -7 0
-30 2 0
-30 7 0
31 -30 19 0
-31 30 0
-31 -19 0
32 30 -19 0
-32 -30 0
-32 19 0
33 32 31 0
-33 -32 0
-33 -31 0
34 -29 -33 0
-34 29 0
-34 33 0
35 29 33 0
-35 -29 0
-35 -33 0
36 35 34 0
-36 -35 0
-36 -34 0
37 -1 -9 0
-37 1 0
-37 9 0
38 -2 -8 0
-38 2 0
-38 8 0
39 -38 -37 0
-39 38 0
-39 37 0
40 -1 -9 0
-40 1 0
-40 9 0
41 -40 28 0
-41 40 0
-41 -28 0
42 -2 -8 0
-42 2 0
-42 8 0
43 -42 28 0
-43 42 0
-43 -28 0
44 41 43 0
-44 -41 0
-44 -43 0
45 39 -44 0
-45 -39 0
-45 44 0
46 -1 -9 0
-46 1 0
-46 9 0
47 -2 -8 0
-47 2 0
-47 8 0
48 -47 -28 0
-48 47 0
-48 28 0
49 47 28 0
-49 -47 0
-49 -28 0
50 48 49 0
-50 -48 0
-50 -49 0
51 -46 -50 0
-51 46 0
-51 50 0
52 46 50 0
-52 -46 0
-52 -50 0
53 52 51 0
-53 -52 0
-53 -51 0
54 -1 -10 0
-54 1 0
-54 10 0
55 -2 -9 0
-55 2 0
-55 9 0
56 -55 -54 0
-56 55 0
-56 54 0
57 -1 -10 0
-57 1 0
-57 10 0
58 -57 45 0
-58 57 0
-58 -45 0
59 -2 -9 0
-59 2 0
-59 9 0
60 -59 45 0
-60 59 0
-60 -45 0
61 58 60 0
-61 -58 0
-61 -60 0
62 56 -61 0
-62 -56 0
-62 61 0
63 -1 -10 0
-63 1 0
-63 10 0
64 -2 -9 0
-64 2 0
-64 9 0
65 -64 -45 0
-65 64 0
-65 45 0
66 64 45 0
-66 -64 0
-66 -45 0
67 66 65 0
-67 -66 0
-67 -65 0
68 -63 -67 0
-68 63 0
-68 67 0
69 63 67 0
-69 -63 0
-69 -67 0
70 68 69 0
-70 -68 0
-70 -69 0
71 -1 -11 0
-71 1 0
-71 11 0
72 -2 -10 0
-72 2 0
-72 10 0
73 -72 -71 0
-73 72 0
-73 71 0
74 -1 -11 0
-74 1 0
-74 11 0
75 -74 62 0
-75 74 0
-75 -62 0
76 -2 -10 0
-76 2 0
-76 10 0
77 -76 62 0
-77 76 0
-77 -62 0
78 75 77 0
-78 -75 0
-78 -77 0
79 73 -78 0
-79 -73 0
-79 78 0
80 -1 -11 0
-80 1 0
-80 11 0
81 -2 -10 0
-81 2 0
-81 10 0
82 -81 -62 0
-82 81 0
-82 62 0
83 81 62 0
-83 -81 0
-83 -62 0
84 82 83 0
-84 -82 0
-84 -83 0
85 -80 -84 0
-85 80 0
-85 84 0
86 80 84 0
-86 -80 0
-86 -84 0
87 85 86 0
-87 -85 0
-87 -86 0
88 -2 -11 0
-88 2 0
-88 11 0
89 -88 79 0
-89 88 0
-89 -79 0
90 -2 -11 0
-90 2 0
-90 11 0
91 -90 -79 0
-91 90 0
-91 79 0
92 90 79 0
-92 -90 0
-92 -79 0
93 91 92 0
-93 -91 0
-93 -92 0
94 -3 -6 0
-94 3 0
-94 6 0
95 94 36 0
-95 -94 0
-95 -36 0
96 -94 -36 0
-96 94 0
-96 36 0
97 96 95 0
-97 -96 0
-97 -95 0
98 -3 -6 0
-98 3 0
-98 6 0
99 -98 36 0
-99 98 0
-99 -36 0
100 -3 -7 0
-100 3 0
-100 7 0
101 -100 53 0
-101 100 0
-101 -53 0
102 53 -99 0
-102 -53 0
-102 99 0
103 -3 -7 0
-103 3 0
-103 7 0
104 -103 -99 0
-104 103 0
-104 99 0
105 104 102 0
-105 -104 0
-105 -102 0
106 101 -105 0
-106 -101 0
-106 105 0
107 -3 -7 0
-107 3 0
-107 7 0
108 -107 99 0
-108 107 0
-108 -99 0
109 107 -99 0
-109 -107 0
-109 99 0
110 109 108 0
-110 -109 0
-110 -108 0
111 53 -110 0
-111 -53 0
-111 110 0
112 -53 110 0
-112 53 0
-112 -110 0
113 112 111 0
-113 -112 0
-113 -111 0
114 -3 -8 0
-114 3 0
-114 8 0
115 -114 70 0
-115 114 0
-115 -70 0
116 70 106 0
-116 -70 0
-116 -106 0
117 -3 -8 0
-117 3 0
-117 8 0
118 -117 106 0
-118 117 0
-118 -106 0
119 116 118 0
-119 -116 0
-119 -118 0
120 115 -119 0
-120 -115 0
-120 119 0
121 -3 -8 0
-121 3 0
-121 8 0
122 -121 -106 0
-122 121 0
-122 106 0
123 121 106 0
-123 -121 0
-123 -106 0
124 122 123 0
-124 -122 0
-124 -123 0
125 70 -124 0
-125 -70 0
-125 124 0
126 -70 124 0
-126 70 0
-126 -124 0
127 126 125 0
-127 -126 0
-127 -125 0
128 -3 -9 0
-128 3 0
-128 9 0
129 -128 87 0
-129 128 0
-129 -87 0
130 87 120 0
-130 -87 0
-130 -120 0
131 -3 -9 0
-131 3 0
-131 9 0
132 -131 120 0
-132 131 0
-132 -120 0
133 130 132 0
-133 -130 0
-133 -132 0
134 -133 129 0
-134 133 0
-134 -129 0
135 -3 -9 0
-135 3 0
-135 9 0
136 -135 -120 0
-136 135 0
-136 120 0
137 135 120 0
-137 -135 0
-137 -120 0
138 136 137 0
-138 -136 0
-138 -137 0
139 -138 87 0
-139 138 0
-139 -87 0
140 138 -87 0
-140 -138 0
-140 87 0
141 140 139 0
-141 -140 0
-141 -139 0
142 -3 -10 0
-142 3 0
-142 10 0
143 -142 93 0
-143 142 0
-143 -93 0
144 134 93 0
-144 -134 0
-144 -93 0
145 -3 -10 0
-145 3 0
-145 10 0
146 -145 134 0
-146 145 0
-146 -134 0
147 144 146 0
-147 -144 0
-147 -146 0
148 143 -147 0
-148 -143 0
-148 147 0
149 -3 -10 0
-149 3 0
-149 10 0
150 -149 -134 0
-150 149 0
-150 134 0
151 149 134 0
-151 -149 0
-151 -134 0
152 150 151 0
-152 -150 0
-152 -151 0
153 -152 93 0
-153 152 0
-153 -93 0
154 152 -93 0
-154 -152 0
-154 93 0
155 153 154 0
-155 -153 0
-155 -154 0
156 -3 -11 0
-156 3 0
-156 11 0
157 -156 -89 0
-157 156 0
-157 89 0
158 -89 148 0
-158 89 0
-158 -148 0
159 -3 -11 0
-159 3 0
-159 11 0
160 -159 148 0
-160 159 0
-160 -148 0
161 160 158 0
-161 -160 0
-161 -158 0
162 157 -161 0
-162 -157 0
-162 161 0
163 -3 -11 0
-163 3 0
-163 11 0
164 -163 -148 0
-164 163 0
-164 148 0
165 163 148 0
-165 -163 0
-165 -148 0
166 164 165 0
-166 -164 0
-166 -165 0
167 -89 -166 0
-167 89 0
-167 166 0
168 89 166 0
-168 -89 0
-168 -166 0
169 167 168 0
-169 -167 0
-169 -168 0
170 -4 -6 0
-170 4 0
-170 6 0
171 170 113 0
-171 -170 0
-171 -113 0
172 -170 -113 0
-172 170 0
-172 113 0
173 172 171 0
-173 -172 0
-173 -171 0
174 -4 -6 0
-174 4 0
-174 6 0
175 -174 113 0
-175 174 0
-175 -113 0
176 -4 -7 0
-176 4 0
-176 7 0
177 -176 127 0
-177 176 0
-177 -127 0
178 -175 127 0
-178 175 0
-178 -127 0
179 -4 -7 0
-179 4 0
-179 7 0
180 -179 -175 0
-180 179 0
-180 175 0
181 178 180 0
-181 -178 0
-181 -180 0
182 -181 177 0
-182 181 0
-182 -177 0
183 -4 -7 0
-183 4 0
-183 7 0
184 -183 175 0
-184 183 0
-184 -175 0
185 183 -175 0
-185 -183 0
-185 175 0
186 185 184 0
-186 -185 0
-186 -184 0
187 -186 127 0
-187 186 0
-187 -127 0
188 186 -127 0
-188 -186 0
-188 127 0
189 187 188 0
-189 -187 0
-189 -188 0
190 -4 -8 0
-190 4 0
-190 8 0
191 -190 141 0
-191 190 0
-191 -141 0
192 182 141 0
-192 -182 0
-192 -141 0
193 -4 -8 0
-193 4 0
-193 8 0
194 -193 182 0
-194 193 0
-194 -182 0
195 192 194 0
-195 -192 0
-195 -194 0
196 -195 191 0
-196 195 0
-196 -191 0
197 -4 -8 0
-197 4 0
-197 8 0
198 -197 -182 0
-198 197 0
-198 182 0
199 197 182 0
-199 -197 0
-199 -182 0
200 199 198 0
-200 -199 0
-200 -198 0
201 -200 141 0
-201 200 0
-201 -141 0
202 200 -141 0
-202 -200 0
-202 141 0
203 202 201 0
-203 -202 0
-203 -201 0
204 -4 -9 0
-204 4 0
-204 9 0
205 -204 155 0
-205 204 0
-205 -155 0
206 155 196 0
-206 -155 0
-206 -196 0
207 -4 -9 0
-207 4 0
-207 9 0
208 -207 196 0
-208 207 0
-208 -196 0
209 206 208 0
-209 -206 0
-209 -208 0
210 -209 205 0
-210 209 0
-210 -205 0
211 -4 -9 0
-211 4 0
-211 9 0
212 -211 -196 0
-212 211 0
-212 196 0
213 211 196 0
-213 -211 0
-213 -196 0
214 212 213 0
-214 -212 0
-214 -213 0
215 -214 155 0
-215 214 0
-215 -155 0
216 214 -155 0
-216 -214 0
-216 155 0
217 216 215 0
-217 -216 0
-217 -215 0
218 -4 -10 0
-218 4 0
-218 10 0
219 -218 169 0
-219 218 0
-219 -169 0
220 210 169 0
-220 -210 0
-220 -169 0
221 -4 -10 0
-221 4 0
-221 10 0
222 -221 210 0
-222 221 0
-222 -210 0
223 222 220 0
-223 -222 0
-223 -220 0
224 -223 219 0
-224 223 0
-224 -219 0
225 -4 -10 0
-225 4 0
-225 10 0
226 -225 -210 0
-226 225 0
-226 210 0
227 225 210 0
-227 -225 0
-227 -210 0
228 227 226 0
-228 -227 0
-228 -226 0
229 -228 169 0
-229 228 0
-229 -169 0
230 228 -169 0
-230 -228 0
-230 169 0
231 230 229 0
-231 -230 0
-231 -229 0
232 -4 -11 0
-232 4 0
-232 11 0
233 -232 162 0
-233 232 0
-233 -162 0
234 224 162 0
-234 -224 0
-234 -162 0
235 -4 -11 0
-235 4 0
-235 11 0
236 -235 224 0
-236 235 0
-236 -224 0
237 236 234 0
-237 -236 0
-237 -234 0
238 -237 233 0
-238 237 0
-238 -233 0
239 -4 -11 0
-239 4 0
-239 11 0
240 -239 -224 0
-240 239 0
-240 224 0
241 239 224 0
-241 -239 0
-241 -224 0
242 240 241 0
-242 -240 0
-242 -241 0
243 162 -242 0
-243 -162 0
-243 242 0
244 -162 242 0
-244 162 0
-244 -242 0
245 244 243 0
-245 -244 0
-245 -243 0
246 -5 -6 0
-246 5 0
-246 6 0
247 246 189 0
-247 -246 0
-247 -189 0
248 -246 -189 0
-248 246 0
-248 189 0
249 248 247 0
-249 -248 0
-249 -247 0
250 -5 -6 0
-250 5 0
-250 6 0
251 -250 189 0
-251 250 0
-251 -189 0
252 -5 -7 0
-252 5 0
-252 7 0
253 -252 203 0
-253 252 0
-253 -203 0
254 203 -251 0
-254 -203 0
-254 251 0
255 -5 -7 0
-255 5 0
-255 7 0
256 -255 -251 0
-256 255 0
-256 251 0
257 254 256 0
-257 -254 0
-257 -256 0
258 253 -257 0
-258 -253 0
-258 257 0
259 -5 -7 0
-259 5 0
-259 7 0
260 -259 251 0
-260 259 0
-260 -251 0
261 259 -251 0
-261 -259 0
-261 251 0
262 260 261 0
-262 -260 0
-262 -261 0
263 -262 203 0
-263 262 0
-263 -203 0
264 262 -203 0
-264 -262 0
-264 203 0
265 264 263 0
-265 -264 0
-265 -263 0
266 -5 -8 0
-266 5 0
-266 8 0
267 -266 217 0
-267 266 0
-267 -217 0
268 258 217 0
-268 -258 0
-268 -217 0
269 -5 -8 0
-269 5 0
-269 8 0
270 -269 258 0
-270 269 0
-270 -258 0
271 270 268 0
-271 -270 0
-271 -268 0
272 -271 267 0
-272 271 0
-272 -267 0
273 -5 -8 0
-273 5 0
-273 8 0
274 -273 -258 0
-274 273 0
-274 258 0
275 273 258 0
-275 -273 0
-275 -258 0
276 275 274 0
-276 -275 0
-276 -274 0
277 -276 217 0
-277 276 0
-277 -217 0
278 276 -217 0
-278 -276 0
-278 217 0
279 277 278 0
-279 -277 0
-279 -278 0
280 -5 -9 0
-280 5 0
-280 9 0
281 -280 231 0
-281 280 0
-281 -231 0
282 231 272 0
-282 -231 0
-282 -272 0
283 -5 -9 0
-283 5 0
-283 9 0
284 -283 272 0
-284 283 0
-284 -272 0
285 282 284 0
-285 -282 0
-285 -284 0
286 281 -285 0
-286 -281 0
-286 285 0
287 -5 -9 0
-287 5 0
-287 9 0
288 -287 -272 0
-288 287 0
-288 272 0
289 287 272 0
-289 -287 0
-289 -272 0
290 288 289 0
-290 -288 0
-290 -289 0
291 231 -290 0
-291 -231 0
-291 290 0
292 -231 290 0
-292 231 0
-292 -290 0
293 291 292 0
-293 -291 0
-293 -292 0
294 -5 -10 0
-294 5 0
-294 10 0
295 -294 245 0
-295 294 0
-295 -245 0
296 286 245 0
-296 -286 0
-296 -245 0
297 -5 -10 0
-297 5 0
-297 10 0
298 -297 286 0
-298 297 0
-298 -286 0
299 296 298 0
-299 -296 0
-299 -298 0
300 -299 295 0
-300 299 0
-300 -295 0
301 -5 -10 0
-301 5 0
-301 10 0
302 -301 -286 0
-302 301 0
-302 286 0
303 301 286 0
-303 -301 0
-303 -286 0
304 302 303 0
-304 -302 0
-304 -303 0
305 -304 245 0
-305 304 0
-305 -245 0
306 304 -245 0
-306 -304 0
-306 245 0
307 305 306 0
-307 -305 0
-307 -306 0
308 -5 -11 0
-308 5 0
-308 11 0
309 -308 238 0
-309 308 0
-309 -238 0
310 300 238 0
-310 -300 0
-310 -238 0
311 -5 -11 0
-311 5 0
-311 11 0
312 -311 300 0
-312 311 0
-312 -300 0
313 312 310 0
-313 -312 0
-313 -310 0
314 -313 309 0
-314 313 0
-314 -309 0
315 -5 -11 0
-315 5 0
-315 11 0
316 -315 -300 0
-316 315 0
-316 300 0
317 315 300 0
-317 -315 0
-317 -300 0
318 317 316 0
-318 -317 0
-318 -316 0
319 -318 238 0
-319 318 0
-319 -238 0
320 318 -238 0
-320 -318 0
-320 238 0
321 320 319 0
-321 -320 0
-321 -319 0
322 -1 -6 0
-322 1 0
-322 6 0
-323 322 0
323 -322 0
-324 -16 0
324 16 0
-325 -97 0
325 97 0
-326 -173 0
326 173 0
-327 -249 0
327 249 0
-328 -265 0
328 265 0
-329 -279 0
329 279 0
-330 -293 0
330 293 0
-331 -307 0
331 307 0
-332 -321 0
332 321 0
-333 -314 0
333 314 0
-323 0
-324 0
-325 0
326 0
327 0
328 0
-329 0
-330 0
-331 0
-332 0
-333 0
